sat
(
  (define-fun C3_VM6 () Int
    0)
  (define-fun MemProv7 () Int
    1350)
  (define-fun C1_VM5 () Int
    0)
  (define-fun C5_VM1 () Int
    0)
  (define-fun VM7Type () Int
    1)
  (define-fun StorageProv1 () Int
    141001)
  (define-fun VM3Type () Int
    10)
  (define-fun C4_VM6 () Int
    0)
  (define-fun C5_VM8 () Int
    0)
  (define-fun PriceProv4 () Int
    240)
  (define-fun MemProv6 () Int
    13951)
  (define-fun MemProv8 () Int
    1350)
  (define-fun C2_VM2 () Int
    0)
  (define-fun MemProv5 () Int
    1351)
  (define-fun C1_VM1 () Int
    0)
  (define-fun PriceProv1 () Int
    0)
  (define-fun C3_VM7 () Int
    0)
  (define-fun C1_VM6 () Int
    0)
  (define-fun C2_VM7 () Int
    1)
  (define-fun C2_VM1 () Int
    0)
  (define-fun C4_VM8 () Int
    0)
  (define-fun C1_VM7 () Int
    1)
  (define-fun PriceProv6 () Int
    0)
  (define-fun C4_VM5 () Int
    0)
  (define-fun C2_VM6 () Int
    0)
  (define-fun C3_VM5 () Int
    0)
  (define-fun C1_VM8 () Int
    0)
  (define-fun StorageProv7 () Int
    42000)
  (define-fun ProcProv5 () Int
    899)
  (define-fun C5_VM3 () Int
    1)
  (define-fun VM4Type () Int
    7)
  (define-fun MemProv4 () Int
    3150)
  (define-fun PriceProv5 () Int
    0)
  (define-fun StorageProv6 () Int
    402001)
  (define-fun C5_VM4 () Int
    0)
  (define-fun ProcProv8 () Int
    900)
  (define-fun MemProv3 () Int
    6750)
  (define-fun C5_VM2 () Int
    1)
  (define-fun C2_VM4 () Int
    0)
  (define-fun VM5Type () Int
    0)
  (define-fun C3_VM2 () Int
    0)
  (define-fun ProcProv2 () Int
    3600)
  (define-fun VM2Type () Int
    10)
  (define-fun C1_VM4 () Int
    0)
  (define-fun MemProv2 () Int
    6750)
  (define-fun C3_VM8 () Int
    0)
  (define-fun PriceProv3 () Int
    480)
  (define-fun C3_VM4 () Int
    1)
  (define-fun C5_VM6 () Int
    0)
  (define-fun PriceProv7 () Int
    120)
  (define-fun StorageProv2 () Int
    141000)
  (define-fun StorageProv8 () Int
    42000)
  (define-fun C1_VM3 () Int
    1)
  (define-fun C4_VM7 () Int
    0)
  (define-fun ProcProv6 () Int
    3599)
  (define-fun C1_VM2 () Int
    1)
  (define-fun ProcProv4 () Int
    1800)
  (define-fun ProcProv7 () Int
    900)
  (define-fun ProcProv3 () Int
    3600)
  (define-fun PriceProv2 () Int
    480)
  (define-fun C4_VM2 () Int
    0)
  (define-fun ProcProv1 () Int
    1801)
  (define-fun VM6Type () Int
    0)
  (define-fun C4_VM1 () Int
    0)
  (define-fun VM8Type () Int
    1)
  (define-fun C2_VM5 () Int
    0)
  (define-fun C5_VM5 () Int
    0)
  (define-fun C3_VM3 () Int
    0)
  (define-fun VM1Type () Int
    0)
  (define-fun C2_VM8 () Int
    1)
  (define-fun PriceProv8 () Int
    120)
  (define-fun StorageProv3 () Int
    141000)
  (define-fun StorageProv5 () Int
    402001)
  (define-fun C4_VM3 () Int
    0)
  (define-fun C3_VM1 () Int
    0)
  (define-fun MemProv1 () Int
    6751)
  (define-fun C2_VM3 () Int
    0)
  (define-fun C5_VM7 () Int
    0)
  (define-fun C4_VM4 () Int
    0)
  (define-fun StorageProv4 () Int
    69000)
)
(objectives
 ( 13)
 ((+ 0
   PriceProv1
   PriceProv2
   PriceProv3
   PriceProv4
   PriceProv5
   PriceProv6
   PriceProv7
   PriceProv8) 1440)
)
(:added-eqs                   109796
 :arith-eq-adapter            23101
 :arith-bound-propagations-lp 226
 :arith-conflicts             23
 :arith-diseq                 94851
 :arith-fixed-eqs             1787
 :arith-lower                 145842
 :arith-make-feasible         20968
 :arith-max-columns           145
 :arith-max-rows              26
 :arith-upper                 75229
 :binary-propagations         448874
 :conflicts                   1663
 :decisions                   63032
 :del-clause                  30103
 :final-checks                41
 :max-memory                  43.34
 :maxsat-cores                2
 :memory                      43.32
 :minimized-lits              10776
 :mk-bool-var                 45831
 :mk-clause                   31222
 :mk-clause-binary            3756
 :num-allocs                  37261782
 :num-checks                  45
 :pb-conflicts                1073
 :pb-predicates               407
 :pb-propagations             2890
 :pb-resolves                 1051
 :propagations                625123
 :restarts                    11
 :rlimit-count                4819966
 :time                        0.23
 :total-time                  0.23)
